H1
1.0
  12.0000000000000000    0.0000000000000000    0.0000000000000007
  -0.0000000000000007   12.0000000000000000    0.0000000000000007
   0.0000000000000000    0.0000000000000000   12.0000000000000000
H
1
direct
   0.5000000000000000    0.5000000000000000    0.4999999999999999 H
