System = Band Structure
ICHARG = 11 #charge read file
ISMEAR = 0; SIGMA = 0.1;
LORBIT = 11
PREC   = Accurate
ENCUT  = 520
NBANDS = 768