generated by phonopy
   1.0
     2.0956832629406272    1.2099432959949648    9.9762290674032084
    -2.0956832629406277    1.2099432959949648    9.9762290674032084
     0.0000000000000000   -2.4198865919899295    9.9762290674032084
Bi Se
   2    3
Direct
  0.3984349999999997  0.3984349999999998  0.3984349999999998
  0.6015650000000003  0.6015650000000001  0.6015650000000001
  0.0000000000000000  0.0000000000000000  0.0000000000000000
  0.2157149999999999  0.2157149999999999  0.2157150000000000
  0.7842850000000000  0.7842850000000000  0.7842850000000000
